c This is UnifRandomKSATGenerator
c uniform random 3-SAT generated instance with: 
c clause length: 3 
c number variables: 10 
c number clauses: 43 
c clause to variable ratio: 4.27 
c random number generator name: SHA1PRNG 
c random number generator provider: SUN 
c random number generator seed: 8985740261913272124 
p cnf 10 43
1 3 4 0
-1 3 6 0
-1 9 3 0
10 5 7 0
-3 -4 -7 0
-2 -10 3 0
-10 2 7 0
1 -10 -6 0
1 -2 -6 0
-2 4 -8 0
2 -4 5 0
-9 2 -8 0
-10 -6 5 0
-2 -4 3 0
-2 -4 7 0
8 -4 -7 0
-9 7 -8 0
-1 -10 -5 0
3 6 -8 0
3 -6 5 0
1 -3 -7 0
-3 5 6 0
-1 4 -6 0
8 -2 7 0
10 -4 3 0
-10 -3 -4 0
-10 -5 -8 0
-10 -2 -8 0
-2 3 -7 0
-3 2 4 0
-9 -2 7 0
8 9 2 0
3 6 7 0
-2 10 -7 0
8 -6 -7 0
8 5 6 0
5 6 -8 0
-1 -9 2 0
-9 1 -5 0
10 -5 7 0
10 -6 5 0
-10 2 -7 0
-3 5 -8 0
